1627900200
1627917660
1627986600
1628001180
1628073000
1628087520
1628159400
1628173800
1628242200
1628256480
1629714600
1629729000
1629799200
1629813600
1629887400
1629902040
1629973800
1629988140
1630060200
1630074540
1630319400
1630334580
1630405800
1630420260
